NAME: ACTUAL_TOURS/amz1774
TYPE: TOUR
COMMENT: RouteID_be288940-d140-44a3-8eda-65750ed76978
DIMENSION: 143
TOUR_SECTION
133
118
96
85
29
53
42
25
104
7
55
99
135
88
49
34
18
58
57
70
93
141
21
35
60
63
113
137
52
142
41
131
109
39
123
110
116
111
50
97
73
86
106
107
5
47
11
71
80
14
94
130
101
36
2
44
20
69
126
102
40
33
98
30
89
9
19
65
143
51
24
16
6
95
100
78
128
46
129
28
140
108
37
67
138
17
82
84
31
66
134
91
72
125
27
38
62
81
23
45
3
74
124
8
59
1
22
120
76
54
13
132
79
56
121
136
43
15
115
92
77
4
87
127
117
10
64
26
68
61
103
90
48
32
112
12
122
119
139
75
83
114
105
-1
EOF
